s td 38 7 44
b 1 11 14 16
b 2 12 13 15
b 3 13 15 37
b 4 14 16 38
b 5 7 15 37
b 6 8 16 38
b 7 17 20 22
b 8 18 19 21
b 9 19 21 27
b 10 20 22 28
b 11 21 27 43
b 12 22 28 44
b 13 33 36 38
b 14 34 35 37
b 15 29 35 37
b 16 30 36 38
b 17 7 29 37
b 18 8 30 38
b 19 39 42 44
b 20 40 41 43
b 21 5 41 43
b 22 6 42 44
b 23 5 27 43
b 24 6 28 44
b 25 1 2 3 4 25 26 32
b 26 2 3 4 25 26 27 32
b 27 2 3 5 27
b 28 2 4 26 27 29 32
b 29 2 4 7 29
b 30 24 27 29 32
b 31 1 3 4 23 25 26 32
b 32 1 4 6 23 26
b 33 6 23 26 28
b 34 1 3 8 23 25
b 35 8 23 25 30
b 36 3 4 25 26 31
b 37 3 4 9 31
b 38 1 2 10 32
1 4
2 3
3 5
4 6
5 17
6 18
7 10
8 9
9 11
10 12
11 23
12 24
13 16
14 15
15 17
16 18
17 29
18 35
19 22
20 21
21 23
22 24
23 27
24 33
25 26
25 31
25 36
25 38
26 27
26 28
28 29
28 30
31 32
31 34
32 33
34 35
36 37
